
Welcome to IBM(R) ILOG(R) CPLEX(R) Interactive Optimizer 22.1.1.0
  with Simplex, Mixed Integer & Barrier Optimizers
5725-A06 5725-A29 5724-Y48 5724-Y49 5724-Y54 5724-Y55 5655-Y21
Copyright IBM Corp. 1988, 2022.  All Rights Reserved.

Type 'help' for a list of available commands.
Type 'help' followed by a command name for more
information on commands.

CPLEX> Selected objective sense:  MINIMIZE
Selected objective  name:  00000000
Selected RHS        name:  RHS1
Selected bound      name:  BOUND
Problem 'ee.mps' read.
Read time = 0.03 sec. (3.17 ticks)
CPLEX> New value for time limit in seconds: 7200
CPLEX> New value for parallel optimization mode: -1
CPLEX> New value for default parallel thread count: 40
CPLEX> New value for mixed integer optimality gap tolerance: 1e-13
CPLEX> Version identifier: 22.1.1.0 | 2022-11-28 | 9160aff4d
CPXPARAM_Threads                                 40
CPXPARAM_Parallel                                -1
CPXPARAM_TimeLimit                               7200
CPXPARAM_MIP_Tolerances_MIPGap                   1e-13
Found incumbent of value 0.000000 after 0.00 sec. (0.31 ticks)
Tried aggregator 2 times.
MIP Presolve eliminated 184 rows and 2745 columns.
MIP Presolve modified 6090 coefficients.
Aggregator did 713 substitutions.
Reduced MIP has 3636 rows, 7840 columns, and 28953 nonzeros.
Reduced MIP has 7840 binaries, 0 generals, 0 SOSs, and 0 indicators.
Presolve time = 0.07 sec. (69.12 ticks)
Probing time = 0.03 sec. (5.33 ticks)
Tried aggregator 1 time.
Detecting symmetries...
Reduced MIP has 3636 rows, 7840 columns, and 28953 nonzeros.
Reduced MIP has 7840 binaries, 0 generals, 0 SOSs, and 0 indicators.
Presolve time = 0.03 sec. (22.08 ticks)
Probing time = 0.02 sec. (5.12 ticks)
Clique table members: 18788.
MIP emphasis: balance optimality and feasibility.
MIP search method: dynamic search.
Parallel mode: opportunistic, using up to 40 threads.
Root relaxation solution time = 0.13 sec. (105.20 ticks)

        Nodes                                         Cuts/
   Node  Left     Objective  IInf  Best Integer    Best Bound    ItCnt     Gap

*     0+    0                            0.0000  -1.54000e+13              --- 
*     0+    0                      -2.39000e+12  -1.54000e+13           544.35%
*     0+    0                      -7.19000e+12  -1.54000e+13           114.19%
      0     0  -1.53900e+13    85  -7.19000e+12  -1.53900e+13     2480  114.05%
*     0+    0                      -1.53900e+13  -1.53900e+13             0.00%
      0     0  -1.53900e+13   144  -1.53900e+13     Cuts: 115     2885    0.00%
      0     0  -1.53900e+13   210  -1.53900e+13      Cuts: 89     3686    0.00%
*     0+    0                      -1.53900e+13  -1.53900e+13             0.00%
*     0+    0                      -1.53900e+13  -1.53900e+13             0.00%
      0    15    infeasible        -1.53900e+13  -1.53900e+13    14418    0.00%
Elapsed time = 2.62 sec. (1171.60 ticks, tree = 0.02 MB, solutions = 7)
   1100    68  -1.53900e+13   202  -1.53900e+13  -1.53900e+13    20693    0.00%
   2545    65        cutoff        -1.53900e+13  -1.53900e+13    28173    0.00%
   3592   141        cutoff        -1.53900e+13  -1.53900e+13    53635    0.00%
   4711   719        cutoff        -1.53900e+13  -1.53900e+13   158233    0.00%
   5646   970  -1.53900e+13   143  -1.53900e+13  -1.53900e+13   222120    0.00%
   6663  1219        cutoff        -1.53900e+13  -1.53900e+13   287553    0.00%
   7880   752  -1.53900e+13   188  -1.53900e+13  -1.53900e+13   167079    0.00%
   9058   893        cutoff        -1.53900e+13  -1.53900e+13   200461    0.00%
  10083  1069        cutoff        -1.53900e+13  -1.53900e+13   247552    0.00%
  12665  1480        cutoff        -1.53900e+13  -1.53900e+13   381843    0.00%
Elapsed time = 6.71 sec. (4277.15 ticks, tree = 17.74 MB, solutions = 7)

Performing restart 1

Repeating presolve.
Tried aggregator 4 times.
MIP Presolve eliminated 1152 rows and 2985 columns.
MIP Presolve added 154 rows and 0 columns.
MIP Presolve modified 2482 coefficients.
Aggregator did 573 substitutions.
Reduced MIP has 2035 rows, 4231 columns, and 15130 nonzeros.
Reduced MIP has 4231 binaries, 0 generals, 0 SOSs, and 0 indicators.
Presolve time = 0.11 sec. (108.33 ticks)
Tried aggregator 2 times.
MIP Presolve eliminated 77 rows and 179 columns.
Aggregator did 28 substitutions.
Reduced MIP has 1930 rows, 4005 columns, and 14333 nonzeros.
Reduced MIP has 4005 binaries, 0 generals, 0 SOSs, and 0 indicators.
Presolve time = 0.03 sec. (23.37 ticks)
Tried aggregator 1 time.
Reduced MIP has 1930 rows, 4005 columns, and 14333 nonzeros.
Reduced MIP has 4005 binaries, 0 generals, 0 SOSs, and 0 indicators.
Presolve time = 0.02 sec. (11.48 ticks)
Represolve time = 0.32 sec. (222.16 ticks)
  12806     0  -1.53900e+13   199  -1.53900e+13      Cuts: 33   459623    0.00%
  12806     0  -1.53900e+13   178  -1.53900e+13      Cuts: 41   459782    0.00%
  12806     0  -1.53900e+13   260  -1.53900e+13      Cuts: 32   460041    0.00%
  12806     0  -1.53900e+13   197  -1.53900e+13      Cuts: 31   460309    0.00%
  12806     0  -1.53900e+13   269  -1.53900e+13      Cuts: 24   460402    0.00%
  12806     0  -1.53900e+13   293  -1.53900e+13      Cuts: 27   460474    0.00%
  12806     0        cutoff        -1.53900e+13  -1.53900e+13   460474    0.00%

GUB cover cuts applied:  2
Clique cuts applied:  12
Cover cuts applied:  171
Flow cuts applied:  2
Mixed integer rounding cuts applied:  8
Zero-half cuts applied:  23
Lift and project cuts applied:  4
Gomory fractional cuts applied:  7

Root node processing (before b&c):
  Real time             =    1.33 sec. (1162.85 ticks)
Parallel b&c, 40 threads:
  Real time             =    7.12 sec. (4892.77 ticks)
  Sync time (average)   =    0.83 sec.
  Wait time (average)   =    0.00 sec.
                          ------------
Total (root+branch&cut) =    8.45 sec. (6055.62 ticks)

Solution pool: 7 solutions saved.

MIP - Integer optimal solution:  Objective = -1.5389998988e+13
Solution time =    8.58 sec.  Iterations = 460474  Nodes = 12806
Deterministic time = 6055.65 ticks  (706.11 ticks/sec)

CPLEX> Solution 'p8' written to file 'ee.sol'.
CPLEX> 